1207470
53,101,99,52,16,79,47,20,12,67,39,7,27,35,11,54,105,77,32,107,41,59,64,87,6,17,49,75,72,18,61,86,95,92,104,98,70,46,96,90,88,10,48,30,38,13,69,68,26,85,74,56,71,37,40,25,36,8,76,65,9,63,23,108,89,44,81,0,4,34,97,100,33,51,28,15,106,93,45,80,1,58,83,50,31,94,5,29,60,84,42,43,19,62,24,82,2,78,66,3,91,102,55,73,22,14,21,103,57
